p cnf 25 26
-1 9 0 
-1 10 0 
-2 11 0 
-1 -3 6 7 12 0 
-4 -1 -3 6 7 13 0 
-5 -1 10 0 
-1 9 0 
-1 14 0 
-5 -1 15 0 
-2 16 0 
-2 17 0 
-2 18 0 
-2 19 0 
-2 20 0 
-2 21 0 
-6 3 7 13 0 
-1 10 0 
-5 -1 14 0 
-4 -1 9 0 
-1 15 0 
-1 -4 13 0 
-7 3 6 22 0 
-7 3 6 23 0 
-7 3 6 24 0 
-2 25 0 
-8 -1 14 0 
